9051
23,32,37,44,53,56,70,84,109,137,147,156,159,198,211,236,245,249,262,269,289,292,317,379,397,421,426,446,463,469,473,479,539,550,568,573,599,603,610,643,657,658,669,708,726,732,736,743,770,775,786,807,827,830,845,882,935,945,967,989